NAME : ts225.tour
COMMENT : Held-Karp solution of ts225 (length 129565)
TYPE : TOUR
DIMENSION : 225
TOUR_SECTION
1
126
127
128
129
130
151
152
155
154
153
26
27
28
29
30
31
156
157
158
159
160
56
55
54
53
52
51
176
177
178
179
180
76
201
202
203
204
205
101
102
103
104
105
106
107
108
109
110
111
112
113
114
115
116
215
214
213
212
211
87
86
85
84
83
206
207
208
209
210
77
78
79
80
81
82
185
184
183
182
181
57
58
59
60
61
62
186
187
188
189
190
88
89
90
91
92
93
216
217
218
219
220
117
118
119
120
121
122
123
124
125
225
224
223
222
221
199
196
197
198
200
100
99
98
97
96
95
94
195
194
193
192
191
70
71
72
73
74
75
175
174
173
172
171
50
49
48
47
46
45
44
145
144
143
142
150
149
148
147
146
25
24
23
22
21
20
141
18
19
17
16
15
14
13
12
11
136
137
138
139
140
39
40
41
42
43
166
167
168
169
170
69
68
67
66
65
64
63
165
164
163
162
161
38
37
36
35
34
33
32
135
134
133
132
131
10
9
8
7
6
5
4
3
2
-1
EOF
